
  32    4
  10   10   10   10

   0   0   0   0   0   9 2 3 4 5 6 7 13 15 26 
   7  10  10  10  10   6 21 17 16 14 12 10 
   1  10  10  10  10   4 21 12 11 10 
   9  10  10  10  10   4 25 21 12 11 
   5  10  10  10  10   2 10 8 
   2  10  10  10  10   2 10 9 
   9  10  10  10  10   3 19 16 11 
   6  10  10  10  10   6 31 24 22 21 18 17 
   1  10  10  10  10   6 25 24 22 21 20 19 
   6  10  10  10  10   5 25 24 22 19 18 
   1  10  10  10  10   5 31 24 22 18 17 
  10  10  10  10  10   2 20 19 
   1  10  10  10  10   2 20 19 
   5  10  10  10  10   4 29 25 22 20 
   4  10  10  10  10   3 30 25 20 
   3  10  10  10  10   2 30 20 
  10  10  10  10  10   4 30 29 28 27 
   6  10  10  10  10   1 20 
   9  10  10  10  10   3 31 30 29 
   9  10  10  10  10   2 28 23 
   9  10  10  10  10   2 29 23 
   6  10  10  10  10   2 28 27 
   6  10  10  10  10   1 27 
  10  10  10  10  10   1 27 
   5  10  10  10  10   1 28 
   7  10  10  10  10   1 27 
   8  10  10  10  10   1 32
   7  10  10  10  10   1 32
   7  10  10  10  10   1 32
   1  10  10  10  10   1 32
   1  10  10  10  10   1 32
   0   0   0   0   0   0 
